
%FILE DATA:	Soccer Computational Problem for MiniZinc Models	%
%AUTHOR:	Jack Wall	%
%CONTACT:  	116397063@umail.ucc.ie			%
%LAST UPDATE:	02/24/2020, 18:51:12						%
%DESCRIPTION: 	40 games played with 32 games left				%


n=9; %number of teams

%Games to play
games=[|4,6|3,1|2,9|9,8|6,5|1,7|5,3|7,3|1,5|2,1|1,4|4,7|7,2|6,8|1,2|8,7|8,9|1,9|2,8|2,6|2,7|2,3|2,5|9,2|6,7|9,1|8,4|6,4|3,2|9,7|5,9|4,5|];

%Initial points
iPoints=[6,6,18,12,18,12,15,10,11];

%POSITION CONSTRAINTS
% [|teamID, operator, position|...]
% operators index:
%  1 for =  operator
%  2 for >  operator
%  3 for >= operator
%  4 for <  operator
%  5 for <= operator
positionConstraints=[|7,4,2|3,2,1|5,4,4|9,3,4|8,5,5|2,5,6|];